c smth
s vc 200 136
199
196
195
193
191
189
188
187
186
185
184
181
178
177
176
174
171
170
169
166
165
163
162
161
159
158
157
156
150
149
148
146
145
144
143
142
140
139
138
137
135
134
132
131
129
128
127
126
125
124
123
122
121
119
118
117
115
114
113
111
110
109
108
106
105
104
101
100
99
97
95
94
93
92
91
90
88
87
85
83
82
81
80
79
78
75
72
71
70
69
68
66
64
63
62
61
60
58
57
55
54
53
52
51
50
47
46
45
42
41
38
37
35
34
33
32
31
30
28
27
26
25
22
21
20
18
17
16
13
11
10
8
6
4
3
2